RT is False
Default write of storage_offers_DA.csv just to have a file (but constraint should be inactive)
Reading model...
...model read.
creating competitive generators file...
...competitive generators recorded.
Loading data...
.. day-ahead data read.
Compiling instance...
...instance created.
Creating Offer Mitigation (model will solve as dispatch if TRUE)...
NOTE: storage offers will not be mitigated
...storage offer mitigation file created
Converting model to MPEC...
...converted
NOTE: initial MIP solve with only storage competitive to get feasible solution
Solving...

Welcome to IBM(R) ILOG(R) CPLEX(R) Interactive Optimizer 12.9.0.0
  with Simplex, Mixed Integer & Barrier Optimizers
5725-A06 5725-A29 5724-Y48 5724-Y49 5724-Y54 5724-Y55 5655-Y21
Copyright IBM Corp. 1988, 2019.  All Rights Reserved.

Type 'help' for a list of available commands.
Type 'help' followed by a command name for more
information on commands.

CPLEX> Logfile 'cplex.log' closed.
Logfile 'C:\Users\llavin\Desktop\test919\logs\tmp8s5f2ecv.cplex.log' open.
CPLEX> New value for parallel optimization mode: -1
CPLEX> New value for mixed integer optimality gap tolerance: 0.01
CPLEX> New value for integrality tolerance: 1e-09
CPLEX> New value for feasibility tolerance: 0.01
CPLEX> New value for deterministic time limit in ticks: 75000
CPLEX> Problem 'C:\Users\llavin\Desktop\test919\logs\tmpwj9cq9wm.pyomo.lp' read.
Read time = 0.23 sec. (14.73 ticks)
CPLEX> Problem name         : C:\Users\llavin\Desktop\test919\logs\tmpwj9cq9wm.pyomo.lp
Objective sense      : Maximize
Variables            :   53805  [Nneg: 1,  Box: 22000,  Free: 4464,
                                 Binary: 27340]
Objective nonzeros   :    9061
Linear constraints   :  123205  [Less: 41346,  Greater: 59096,  Equal: 22763]
  Nonzeros           :  291785
  RHS nonzeros       :   67523

Variables            : Min LB: -5000.000        Max UB: 1000000.       
Objective nonzeros   : Min   : 0.2000000        Max   : 2500.000       
Linear constraints   :
  Nonzeros           : Min   : 0.2000000        Max   : 1000000.       
  RHS nonzeros       : Min   : 0.2000000        Max   : 1000000.       
CPLEX> CPXPARAM_Parallel                                -1
CPXPARAM_Simplex_Tolerances_Feasibility          0.01
CPXPARAM_DetTimeLimit                            75000
CPXPARAM_MIP_Tolerances_MIPGap                   0.01
CPXPARAM_MIP_Tolerances_Integrality              1.0000000000000001e-09
Tried aggregator 3 times.
MIP Presolve eliminated 88576 rows and 18926 columns.
MIP Presolve added 3402 rows and 0 columns.
MIP Presolve modified 24904 coefficients.
Aggregator did 12963 substitutions.
Reduced MIP has 25068 rows, 21386 columns, and 71428 nonzeros.
Reduced MIP has 8453 binaries, 0 generals, 0 SOSs, and 0 indicators.
Presolve time = 0.28 sec. (176.13 ticks)
Probing fixed 400 vars, tightened 2886 bounds.
Probing time = 1.23 sec. (898.26 ticks)
Tried aggregator 2 times.
MIP Presolve eliminated 901 rows and 803 columns.
MIP Presolve modified 2245 coefficients.
Aggregator did 45 substitutions.
Reduced MIP has 24122 rows, 20538 columns, and 68683 nonzeros.
Reduced MIP has 8052 binaries, 0 generals, 0 SOSs, and 0 indicators.
Presolve time = 0.09 sec. (71.99 ticks)
Probing time = 0.03 sec. (16.30 ticks)
Clique table members: 6282.
MIP emphasis: balance optimality and feasibility.
MIP search method: dynamic search.
Parallel mode: opportunistic, using up to 32 threads.
Root relaxation solution time = 0.41 sec. (323.19 ticks)

        Nodes                                         Cuts/
   Node  Left     Objective  IInf  Best Integer    Best Bound    ItCnt     Gap

      0     0     3652.9405  1955                   3652.9405     7389         
      0     0     3647.0627    21                    Cuts: 17     7398         
      0     0     3647.0627    22                    Cuts: 17     7402         
      0     0     3652.1269    14                Flowcuts: 11     7412         
      0     0     3651.4832    15                     Cuts: 3     7416         
      0     0     3651.4832    16                 Flowcuts: 3     7417         
      0    19    infeasible                         Covers: 1     8518         
Elapsed time = 9.16 sec. (5993.47 ticks, tree = 0.02 MB, solutions = 0)
    649    68    infeasible                         3645.6053    13971         
   1429   253     3580.6726     3                   3645.6053    21688         
*  2141+  104                         3552.1913     3645.6053             2.63%
   2611    95     3610.3942     2     3552.1913     3630.8284    45616    2.21%
   3093   142        cutoff           3552.1913     3630.8284    45844    2.21%
   3486   356     3594.8382     3     3552.1913     3630.8284    52564    2.21%
   3771   574        cutoff           3552.1913     3630.8284    53456    2.21%
   4016   662        cutoff           3552.1913     3630.8284    53825    2.21%
   4197   670     3578.7786     3     3552.1913     3630.2440    53867    2.20%
   5032   704        cutoff           3552.1913     3630.2440    54336    2.20%
Elapsed time = 24.84 sec. (9074.41 ticks, tree = 4.91 MB, solutions = 4)
   5792  1030     3624.3662     1     3552.1913     3630.2440    56824    2.20%
   6523  1172        cutoff           3552.1913     3630.2440    57491    2.20%
   7033  1176     3552.9149     2     3552.1913     3630.2440    57520    2.20%
   7482  1427     3602.2154     1     3552.1913     3630.2440    58607    2.20%
   7865  1623        cutoff           3552.1913     3630.2440    60074    2.20%
   8197  1506     3594.8382     1     3552.1913     3630.2440    59103    2.20%
   8483  1534     3613.3707     1     3552.1913     3630.2440    59316    2.20%
   8750  1554     3624.3662     1     3552.1913     3630.2440    59478    2.20%
   9009  1620     3564.1503     3     3552.1913     3630.2440    59876    2.20%
   9259  1623     3552.9149     2     3552.1913     3630.2440    59987    2.20%
Elapsed time = 54.22 sec. (18652.80 ticks, tree = 10.38 MB, solutions = 4)
   9508  1651     3624.3662     1     3552.1913     3630.2440    60453    2.20%
   9730  1666     3613.3707     1     3552.1913     3630.2440    60690    2.20%
   9931  1661     3619.2388     1     3552.1913     3630.2440    60736    2.20%
  10110  1663     3613.3707     1     3552.1913     3630.2440    60683    2.20%
  10285  1665     3624.3662     1     3552.1913     3630.2440    60772    2.20%
  10449  1667     3602.2154     1     3552.1913     3630.2440    60830    2.20%
  10541  1666     3624.3662     1     3552.1913     3630.2440    60803    2.20%
  10591  1671     3606.7398     1     3552.1913     3630.2440    60909    2.20%
  10601  1725    infeasible           3552.1913     3624.9506    64862    2.05%
  15974  1391     3586.8135     4     3552.1913     3624.3662    73826    2.03%
Elapsed time = 63.58 sec. (29416.37 ticks, tree = 4.24 MB, solutions = 4)
  22115  3272     3601.7764     2     3552.1913     3624.3662    85246    2.03%
  28404  6602     3592.8922     1     3552.1913     3624.3662   106316    2.03%
  31903  7700     3624.3662     1     3552.1913     3624.3662   112467    2.03%
  33826  8188     3615.4333     1     3552.1913     3624.3662   115426    2.03%
  35602  8384        cutoff           3552.1913     3624.3662   116917    2.03%
  38218  9335     3574.2104     1     3552.1913     3624.3662   122578    2.03%
  40666  9491        cutoff           3552.1913     3624.3662   123422    2.03%
  43535 10592     3615.4333     1     3552.1913     3624.3662   129579    2.03%
  46958 12524     3578.1883     2     3552.1913     3624.3662   140256    2.03%
  50567 13496     3606.1664     1     3552.1913     3624.3662   145041    2.03%
Elapsed time = 94.92 sec. (38956.14 ticks, tree = 47.14 MB, solutions = 4)
  54705 13804     3586.8135     2     3552.1913     3624.3662   146473    2.03%
  59433 17123     3586.8135     2     3552.1913     3624.3662   162735    2.03%
  62741 17511     3572.7870     3     3552.1913     3624.3662   164587    2.03%
  65448 19602     3578.1883     2     3552.1913     3624.3662   175585    2.03%
  66934 19025     3586.8135     2     3552.1913     3624.3662   172537    2.03%
  67460 19591     3599.7161     1     3552.1913     3624.3662   175604    2.03%

GUB cover cuts applied:  1
Cover cuts applied:  3
Implied bound cuts applied:  7
Flow cuts applied:  13
Mixed integer rounding cuts applied:  102
Gomory fractional cuts applied:  11

Root node processing (before b&c):
  Real time             =    8.17 sec. (5985.18 ticks)
Parallel b&c, 32 threads:
  Real time             =   97.00 sec. (39402.86 ticks)
  Sync time (average)   =    1.71 sec.
  Wait time (average)   =    0.10 sec.
                          ------------
Total (root+branch&cut) =  105.17 sec. (45388.04 ticks)

Solution pool: 4 solutions saved.

MIP - Integer optimal, tolerance (0.01/1e-06):  Objective =  3.5521912603e+03
Current MIP best bound =  3.5806037416e+03 (gap = 28.4125, 0.80%)
Solution time =  105.20 sec.  Iterations = 191126  Nodes = 67475 (22042)
Deterministic time = 45388.20 ticks  (431.43 ticks/sec)

CPLEX> Incumbent solution written to file 'C:\Users\llavin\Desktop\test919\logs\tmp8mzx5hw2.cplex.sol'.
CPLEX> NOTE: no warmstart specified for MIP iteration, default behavior is true
NOTE: resolving with all competitive generators using storage-only solution to warmstart
Solving...

Welcome to IBM(R) ILOG(R) CPLEX(R) Interactive Optimizer 12.9.0.0
  with Simplex, Mixed Integer & Barrier Optimizers
5725-A06 5725-A29 5724-Y48 5724-Y49 5724-Y54 5724-Y55 5655-Y21
Copyright IBM Corp. 1988, 2019.  All Rights Reserved.

Type 'help' for a list of available commands.
Type 'help' followed by a command name for more
information on commands.

CPLEX> Logfile 'cplex.log' closed.
Logfile 'C:\Users\llavin\Desktop\test919\logs\tmpgvn8xlgu.cplex.log' open.
CPLEX> New value for parallel optimization mode: -1
CPLEX> New value for mixed integer optimality gap tolerance: 0.01
CPLEX> New value for integrality tolerance: 1e-09
CPLEX> New value for feasibility tolerance: 0.01
CPLEX> New value for deterministic time limit in ticks: 75000
CPLEX> Problem 'C:\Users\llavin\Desktop\test919\logs\tmp6zi9tld7.pyomo.lp' read.
Read time = 0.23 sec. (14.75 ticks)
CPLEX> MIP start file 'C:\Users\llavin\Desktop\test919\logs\tmp5jssa24r.cplex.mst' read.
CPLEX> Problem name         : C:\Users\llavin\Desktop\test919\logs\tmp6zi9tld7.pyomo.lp
Objective sense      : Maximize
Variables            :   54525  [Nneg: 1,  Box: 22720,  Free: 4464,
                                 Binary: 27340]
Objective nonzeros   :    9757
Linear constraints   :  123205  [Less: 41346,  Greater: 59096,  Equal: 22763]
  Nonzeros           :  291785
  RHS nonzeros       :   67523

Variables            : Min LB: -5000.000        Max UB: 1000000.       
Objective nonzeros   : Min   : 0.2000000        Max   : 2500.000       
Linear constraints   :
  Nonzeros           : Min   : 0.2000000        Max   : 1000000.       
  RHS nonzeros       : Min   : 0.2000000        Max   : 1000000.       
CPLEX> CPXPARAM_Parallel                                -1
CPXPARAM_Simplex_Tolerances_Feasibility          0.01
CPXPARAM_DetTimeLimit                            75000
CPXPARAM_MIP_Tolerances_MIPGap                   0.01
CPXPARAM_MIP_Tolerances_Integrality              1.0000000000000001e-09
Warning:  No solution found from 1 MIP starts.
Retaining values of one MIP start for possible repair.
Tried aggregator 3 times.
MIP Presolve eliminated 88576 rows and 19646 columns.
MIP Presolve added 3402 rows and 0 columns.
MIP Presolve modified 24904 coefficients.
Aggregator did 12963 substitutions.
Reduced MIP has 25068 rows, 21386 columns, and 71428 nonzeros.
Reduced MIP has 8453 binaries, 0 generals, 0 SOSs, and 0 indicators.
Presolve time = 0.30 sec. (176.50 ticks)
Probing fixed 400 vars, tightened 2886 bounds.
Probing time = 1.23 sec. (898.26 ticks)
Tried aggregator 2 times.
MIP Presolve eliminated 901 rows and 803 columns.
MIP Presolve modified 2245 coefficients.
Aggregator did 45 substitutions.
Reduced MIP has 24122 rows, 20538 columns, and 68683 nonzeros.
Reduced MIP has 8052 binaries, 0 generals, 0 SOSs, and 0 indicators.
Presolve time = 0.11 sec. (71.99 ticks)
Probing time = 0.03 sec. (16.30 ticks)
Clique table members: 6282.
MIP emphasis: balance optimality and feasibility.
MIP search method: dynamic search.
Parallel mode: opportunistic, using up to 32 threads.
Root relaxation solution time = 0.45 sec. (346.33 ticks)

        Nodes                                         Cuts/
   Node  Left     Objective  IInf  Best Integer    Best Bound    ItCnt     Gap

      0     0   112319.6260  2002                 112319.6260     7538         
      0     0   110580.6138   674                   Cuts: 868     8021         
      0     0   110140.8618   584                   Cuts: 414     8214         
      0     0   110002.0613   550                   Cuts: 225     8320         
      0     0   109881.4302   527                   Cuts: 113     8374         
      0     0   109874.7601   515                    Cuts: 76     8396         
      0     0   109871.0680   511                    Cuts: 44     8402         
      0     0   109871.0680   508                    Cuts: 48     8405         
Repair heuristic found nothing.
      0     2   109871.0680   508                 Impl Bds: 1     8405         
Elapsed time = 11.05 sec. (6108.57 ticks, tree = 0.02 MB, solutions = 0)
    381    94    89712.4576   424                 107286.6495    10380         
    978   435    62827.6590   361                 107223.9162    14077         
   1575  1141    48144.8102   335                 107223.9162    22966         
   2236  1421    48000.3459   281                 107223.9162    26260         
   3167  2198    42028.1202   272                 107223.9162    33567         
   4335  3606    42028.1202   264                 107223.9162    37035         
   5138  3514    36349.1669   259                 107223.9162    36989         
   5984  4392    10657.4284   265                 107223.9162    37823         
   7252  5338    39901.1495   244                 107223.9162    39591         
* 10539  8265      integral     0    48077.1601   107223.9162    40888  123.02%
Elapsed time = 26.13 sec. (8852.97 ticks, tree = 68.02 MB, solutions = 4)
  11169  1559        cutoff          58248.2586    80240.9408    53754   37.76%
  12414   139    59555.2155   140    58248.2586    65397.6204    59267   12.27%
  13233   435    58432.7909    71    58248.2586    60986.8906    68730    4.70%
  13957   288    infeasible          58248.2586    60805.3895    78031    4.39%

GUB cover cuts applied:  2
Clique cuts applied:  14
Cover cuts applied:  31
Implied bound cuts applied:  63
Flow cuts applied:  1579
Mixed integer rounding cuts applied:  202
Gomory fractional cuts applied:  94

Root node processing (before b&c):
  Real time             =    9.52 sec. (6059.96 ticks)
Parallel b&c, 32 threads:
  Real time             =   39.83 sec. (12164.95 ticks)
  Sync time (average)   =    2.40 sec.
  Wait time (average)   =    0.25 sec.
                          ------------
Total (root+branch&cut) =   49.34 sec. (18224.91 ticks)

Solution pool: 5 solutions saved.

MIP - Integer optimal, tolerance (0.01/1e-06):  Objective =  5.8248258585e+04
Current MIP best bound =  5.8828410958e+04 (gap = 580.152, 1.00%)
Solution time =   49.36 sec.  Iterations = 81418  Nodes = 13989 (56)
Deterministic time = 18225.07 ticks  (369.23 ticks/sec)

CPLEX> Incumbent solution written to file 'C:\Users\llavin\Desktop\test919\logs\tmphrtyyhj1.cplex.sol'.
CPLEX> Exporting results... 
